
Gurobi 8.1.0 (win64, Python) logging started 02/20/19 13:41:59

Academic license - for non-commercial use only

Gurobi 8.1.0 (win64, Python) logging started 02/23/19 18:20:10

Academic license - for non-commercial use only

Gurobi 8.1.0 (win64, Python) logging started 02/23/19 18:51:28

Academic license - for non-commercial use only

Gurobi 8.1.0 (win64, Python) logging started 02/27/19 14:02:03

Academic license - for non-commercial use only

Gurobi 8.1.0 (win64, Python) logging started 02/27/19 14:38:57

Academic license - for non-commercial use only

Gurobi 8.1.0 (win64, Python) logging started 02/27/19 14:52:23

Academic license - for non-commercial use only

Gurobi 8.1.0 (win64, Python) logging started 02/27/19 15:28:14

Academic license - for non-commercial use only

Gurobi 8.1.0 (win64, Python) logging started 02/27/19 15:30:28

Academic license - for non-commercial use only
